0 0 0 0
0 1 2 0
0 2 0 0
0 3 0 0
0 4 1 5
0 5 0 6
0 6 0 5
0 7 1 6
0 8 0 9
0 9 0 7
0 10 0 9
0 11 2 7
0 12 0 6
0 13 1 11
0 14 0 8
0 15 2 8
0 16 2 12
0 17 2 13
0 18 2 7
0 19 1 17
0 20 2 12
0 21 0 12
0 22 1 8
0 23 1 16
0 24 2 20
0 25 0 21
0 26 0 20
0 27 0 25
0 28 0 25
0 29 0 28
0 30 1 25
0 31 0 31
